50

100 30 332
99 8 506
95 6 405
94 38 463
87 16 319
85 25 417
85 43 382
83 23 375
81 18 460
81 32 587
80 15 339
80 15 328
77 24 231
76 28 240
75 9 548
74 34 581
73 9 464
73 28 226
72 16 578
66 30 474
63 13 563
60 17 327
52 15 358
50 19 422
47 20 225
45 5 205
44 5 317
43 4 190
39 8 322
39 17 567
38 15 369
38 17 507
35 8 227
34 13 214
33 13 434
32 16 310
25 10 559
25 9 257
23 2 392
20 4 272
17 4 271
15 6 525
15 8 584
14 2 502
12 4 482
11 6 465
10 1 212
10 4 103
8 2 287
8 1 309
